WARNING: for repeatability, setting FPU to use double precision
============================[ Problem Statistics ]=============================
|                                                                             |
|  Number of variables:            50                                         |
|  Number of clauses:             218                                         |
|  Parse time:                   0.00 s                                       |
|                                                                             |
============================[ Search Statistics ]==============================
| Conflicts |          ORIGINAL         |          LEARNT          | Progress |
|           |    Vars  Clauses Literals |    Limit  Clauses Lit/Cl |          |
===============================================================================
===============================================================================
restarts              : 1
conflicts             : 40             (28369 /sec)
decisions             : 47             (0.00 % random) (33333 /sec)
propagations          : 512            (363121 /sec)
conflict literals     : 119            (15.00 % deleted)
Memory used           : 20.00 MB
CPU time              : 0.00141 s

UNSATISFIABLE
